
(set-logic HORN)
(declare-datatypes ((Tok_1 0)) (((C_87) (D_7) (X_127738) (Y_3271) (Pl_0))))
(declare-fun diseqTok_1 (Tok_1 Tok_1) Bool)
(declare-fun isC_46 (Tok_1) Bool)
(declare-fun isD_3 (Tok_1) Bool)
(declare-fun isX_111 (Tok_1) Bool)
(declare-fun isY_15 (Tok_1) Bool)
(declare-fun isPl_0 (Tok_1) Bool)
(assert (isC_46 C_87))
(assert (isD_3 D_7))
(assert (isX_111 X_127738))
(assert (isY_15 Y_3271))
(assert (isPl_0 Pl_0))
(assert (diseqTok_1 C_87 D_7))
(assert (diseqTok_1 C_87 X_127738))
(assert (diseqTok_1 C_87 Y_3271))
(assert (diseqTok_1 C_87 Pl_0))
(assert (diseqTok_1 D_7 C_87))
(assert (diseqTok_1 X_127738 C_87))
(assert (diseqTok_1 Y_3271 C_87))
(assert (diseqTok_1 Pl_0 C_87))
(assert (diseqTok_1 D_7 X_127738))
(assert (diseqTok_1 D_7 Y_3271))
(assert (diseqTok_1 D_7 Pl_0))
(assert (diseqTok_1 X_127738 D_7))
(assert (diseqTok_1 Y_3271 D_7))
(assert (diseqTok_1 Pl_0 D_7))
(assert (diseqTok_1 X_127738 Y_3271))
(assert (diseqTok_1 X_127738 Pl_0))
(assert (diseqTok_1 Y_3271 X_127738))
(assert (diseqTok_1 Pl_0 X_127738))
(assert (diseqTok_1 Y_3271 Pl_0))
(assert (diseqTok_1 Pl_0 Y_3271))
(declare-datatypes ((list_417 0)) (((nil_479) (cons_411 (head_822 Tok_1) (tail_828 list_417)))))
(declare-fun diseqlist_411 (list_417 list_417) Bool)
(declare-fun head_823 (Tok_1 list_417) Bool)
(declare-fun tail_829 (list_417 list_417) Bool)
(declare-fun isnil_479 (list_417) Bool)
(declare-fun iscons_411 (list_417) Bool)
(assert (forall ((x_127764 Tok_1) (x_127765 list_417))
	(head_823 x_127764 (cons_411 x_127764 x_127765))))
(assert (forall ((x_127764 Tok_1) (x_127765 list_417))
	(tail_829 x_127765 (cons_411 x_127764 x_127765))))
(assert (isnil_479 nil_479))
(assert (forall ((x_127767 Tok_1) (x_127768 list_417))
	(iscons_411 (cons_411 x_127767 x_127768))))
(assert (forall ((x_127769 Tok_1) (x_127770 list_417))
	(diseqlist_411 nil_479 (cons_411 x_127769 x_127770))))
(assert (forall ((x_127771 Tok_1) (x_127772 list_417))
	(diseqlist_411 (cons_411 x_127771 x_127772) nil_479)))
(assert (forall ((x_127773 Tok_1) (x_127774 list_417) (x_127775 Tok_1) (x_127776 list_417))
	(=> (diseqTok_1 x_127773 x_127775) (diseqlist_411 (cons_411 x_127773 x_127774) (cons_411 x_127775 x_127776)))))
(assert (forall ((x_127773 Tok_1) (x_127774 list_417) (x_127775 Tok_1) (x_127776 list_417))
	(=> (diseqlist_411 x_127774 x_127776) (diseqlist_411 (cons_411 x_127773 x_127774) (cons_411 x_127775 x_127776)))))
(declare-datatypes ((T_42 0)) (((TX_0) (TY_0))))
(declare-fun diseqT_38 (T_42 T_42) Bool)
(declare-fun isTX_0 (T_42) Bool)
(declare-fun isTY_0 (T_42) Bool)
(assert (isTX_0 TX_0))
(assert (isTY_0 TY_0))
(assert (diseqT_38 TX_0 TY_0))
(assert (diseqT_38 TY_0 TX_0))
(declare-datatypes ((E_68 0)) (((Plus_138 (projPlus_56 T_42) (projPlus_57 E_68)) (Term_0 (projTerm_0 T_42)))))
(declare-fun diseqE_8 (E_68 E_68) Bool)
(declare-fun projPlus_58 (T_42 E_68) Bool)
(declare-fun projPlus_59 (E_68 E_68) Bool)
(declare-fun projTerm_1 (T_42 E_68) Bool)
(declare-fun isPlus_15 (E_68) Bool)
(declare-fun isTerm_0 (E_68) Bool)
(assert (forall ((x_127779 T_42) (x_127780 E_68))
	(projPlus_58 x_127779 (Plus_138 x_127779 x_127780))))
(assert (forall ((x_127779 T_42) (x_127780 E_68))
	(projPlus_59 x_127780 (Plus_138 x_127779 x_127780))))
(assert (forall ((x_127782 T_42))
	(projTerm_1 x_127782 (Term_0 x_127782))))
(assert (forall ((x_127784 T_42) (x_127785 E_68))
	(isPlus_15 (Plus_138 x_127784 x_127785))))
(assert (forall ((x_127786 T_42))
	(isTerm_0 (Term_0 x_127786))))
(assert (forall ((x_127787 T_42) (x_127788 E_68) (x_127789 T_42))
	(diseqE_8 (Plus_138 x_127787 x_127788) (Term_0 x_127789))))
(assert (forall ((x_127790 T_42) (x_127791 T_42) (x_127792 E_68))
	(diseqE_8 (Term_0 x_127790) (Plus_138 x_127791 x_127792))))
(assert (forall ((x_127793 T_42) (x_127794 E_68) (x_127795 T_42) (x_127796 E_68))
	(=> (diseqT_38 x_127793 x_127795) (diseqE_8 (Plus_138 x_127793 x_127794) (Plus_138 x_127795 x_127796)))))
(assert (forall ((x_127793 T_42) (x_127794 E_68) (x_127795 T_42) (x_127796 E_68))
	(=> (diseqE_8 x_127794 x_127796) (diseqE_8 (Plus_138 x_127793 x_127794) (Plus_138 x_127795 x_127796)))))
(assert (forall ((x_127797 T_42) (x_127798 T_42))
	(=> (diseqT_38 x_127797 x_127798) (diseqE_8 (Term_0 x_127797) (Term_0 x_127798)))))
(declare-fun linTerm_1 (list_417 T_42) Bool)
(assert (linTerm_1 (cons_411 Y_3271 nil_479) TY_0))
(assert (linTerm_1 (cons_411 X_127738 nil_479) TX_0))
(declare-fun x_127740 (list_417 list_417 list_417) Bool)
(assert (forall ((x_127746 list_417) (z_2802 Tok_1) (xs_915 list_417) (y_3272 list_417))
	(=> (x_127740 x_127746 xs_915 y_3272) (x_127740 (cons_411 z_2802 x_127746) (cons_411 z_2802 xs_915) y_3272))))
(assert (forall ((x_127747 list_417))
	(x_127740 x_127747 nil_479 x_127747)))
(declare-fun lin_1 (list_417 E_68) Bool)
(assert (forall ((x_127748 list_417) (t_43 T_42))
	(=> (linTerm_1 x_127748 t_43) (lin_1 x_127748 (Term_0 t_43)))))
(assert (forall ((x_127750 list_417) (x_127751 list_417) (x_127752 list_417) (x_127753 list_417) (a_131 T_42) (b_148 E_68))
	(=> (and (linTerm_1 x_127751 a_131) (lin_1 x_127752 b_148) (x_127740 x_127753 (cons_411 Pl_0 nil_479) x_127752) (x_127740 x_127750 x_127751 x_127753)) (lin_1 x_127750 (Plus_138 a_131 b_148)))))
(assert (forall ((x_127755 list_417) (u_35 E_68) (v_36 E_68))
	(=> (and true (diseqE_8 u_35 v_36) (lin_1 x_127755 u_35) (lin_1 x_127755 v_36)) false)))
(check-sat)
